32	0

0	10	2	3	4	5	6	7	8	10	11	12
8	5	15	16	17	19	23
7	7	14	15	16	17	18	19	23
1	2	9	13
8	5	15	16	17	19	23
1	2	9	13
1	2	9	13
1	2	9	13
1	7	14	15	16	17	18	19	23
5	7	14	15	16	17	18	19	23
2	7	14	15	16	17	18	19	23
3	7	14	15	16	17	18	19	23
6	7	14	15	16	17	18	19	23
3	2	20	22
10	2	25	29
7	2	21	24
6	2	20	22
10	1	21
3	2	20	22
1	2	21	24
1	2	25	29
8	1	26
10	2	25	29
5	3	26	27	28
3	3	26	27	28
1	1	30
3	1	31
7	1	32
6	1	31
1	1	31
1	1	32
0	0
